Sr2MnWO6 I4/m starting guess: GaSbO6 neutron template, Mn on 2a / W on 2b, lattice scaled to literature (a~5.68, c~8.03)
1.0
   5.68000000    0.00000000    0.00000000
   0.00000000    5.68000000    0.00000000
   0.00000000    0.00000000    8.03000000
   Sr    Mn    W     O
    4     2     2    12
Direct
   0.00000000    0.50000000    0.25000000
   0.50000000    0.00000000    0.25000000
   0.00000000    0.50000000    0.75000000
   0.50000000    0.00000000    0.75000000
   0.00000000    0.00000000    0.00000000
   0.50000000    0.50000000    0.50000000
   0.00000000    0.00000000    0.50000000
   0.50000000    0.50000000    0.00000000
   0.00000000    0.00000000    0.25080000
   0.00000000    0.00000000    0.74920000
   0.50000000    0.50000000    0.75080000
   0.50000000    0.50000000    0.24920000
   0.22390000    0.27660000    0.00000000
   0.77610000    0.72340000    0.00000000
   0.72340000    0.22390000    0.00000000
   0.27660000    0.77610000    0.00000000
   0.72390000    0.77660000    0.50000000
   0.27610000    0.22340000    0.50000000
   0.22340000    0.72390000    0.50000000
   0.77660000    0.27610000    0.50000000
