Sr2MoSnO6 I4/m starting guess (MnWO6 neu
   1.0000000000000000     
     5.7245211743773190    0.0000001597849824    0.0000000000000000
    -0.0000001597849824    5.7245211743773190    0.0000000000000000
    -0.0000000000000000    0.0000000000000000    8.2159146518891646
  Sr              Mo              Sn              O             
     4     2     2    12
Direct
  0.0000000000000000  0.5000000000000000  0.2500000000000000
  0.5000000000000000  0.0000000000000000  0.2500000000000000
  0.0000000000000000  0.5000000000000000  0.7500000000000000
  0.5000000000000000  0.0000000000000000  0.7500000000000000
  0.0000000000000000  0.0000000000000000  0.0000000000000000
  0.5000000000000000  0.5000000000000000  0.5000000000000000
  0.0000000000000000  0.0000000000000000  0.5000000000000000
  0.5000000000000000  0.5000000000000000  0.0000000000000000
  0.0000000000000000  0.0000000000000000  0.2442360096157863
  0.0000000000000000  0.0000000000000000  0.7557639903842139
  0.5000000000000000  0.5000000000000000  0.7442360096157861
  0.5000000000000000  0.5000000000000000  0.2557639903842137
  0.1965186038021816  0.3011241024006642  0.0000000000000000
  0.8034813961978182  0.6988758975993357  0.0000000000000000
  0.6988758975993357  0.1965186038021816  0.0000000000000000
  0.3011241024006642  0.8034813961978182  0.0000000000000000
  0.6965186038021818  0.8011241024006643  0.5000000000000000
  0.3034813961978182  0.1988758975993358  0.5000000000000000
  0.1988758975993358  0.6965186038021818  0.5000000000000000
  0.8011241024006643  0.3034813961978182  0.5000000000000000

  0.00000000E+00  0.00000000E+00  0.00000000E+00
  0.00000000E+00  0.00000000E+00  0.00000000E+00
  0.00000000E+00  0.00000000E+00  0.00000000E+00
  0.00000000E+00  0.00000000E+00  0.00000000E+00
  0.00000000E+00  0.00000000E+00  0.00000000E+00
  0.00000000E+00  0.00000000E+00  0.00000000E+00
  0.00000000E+00  0.00000000E+00  0.00000000E+00
  0.00000000E+00  0.00000000E+00  0.00000000E+00
  0.00000000E+00  0.00000000E+00  0.00000000E+00
  0.00000000E+00  0.00000000E+00  0.00000000E+00
  0.00000000E+00  0.00000000E+00  0.00000000E+00
  0.00000000E+00  0.00000000E+00  0.00000000E+00
  0.00000000E+00  0.00000000E+00  0.00000000E+00
  0.00000000E+00  0.00000000E+00  0.00000000E+00
  0.00000000E+00  0.00000000E+00  0.00000000E+00
  0.00000000E+00  0.00000000E+00  0.00000000E+00
  0.00000000E+00  0.00000000E+00  0.00000000E+00
  0.00000000E+00  0.00000000E+00  0.00000000E+00
  0.00000000E+00  0.00000000E+00  0.00000000E+00
  0.00000000E+00  0.00000000E+00  0.00000000E+00
