Sr2WAlO6 I4/m starting guess (MnWO6 neutron-template coords): W on 2a / Al on 2b, a~5.45000000 c~7.70000000, ISIF=3 will relax
1.0
   5.45000000    0.00000000    0.00000000
   0.00000000    5.45000000    0.00000000
   0.00000000    0.00000000    7.70000000
   Sr    W    Al    O
    4     2     2    12
Direct
   0.00000000    0.50000000    0.25000000
   0.50000000    0.00000000    0.25000000
   0.00000000    0.50000000    0.75000000
   0.50000000    0.00000000    0.75000000
   0.00000000    0.00000000    0.00000000
   0.50000000    0.50000000    0.50000000
   0.00000000    0.00000000    0.50000000
   0.50000000    0.50000000    0.00000000
   0.00000000    0.00000000    0.25080000
   0.00000000    0.00000000    0.74920000
   0.50000000    0.50000000    0.75080000
   0.50000000    0.50000000    0.24920000
   0.22390000    0.27660000    0.00000000
   0.77610000    0.72340000    0.00000000
   0.72340000    0.22390000    0.00000000
   0.27660000    0.77610000    0.00000000
   0.72390000    0.77660000    0.50000000
   0.27610000    0.22340000    0.50000000
   0.22340000    0.72390000    0.50000000
   0.77660000    0.27610000    0.50000000
